19,1	0,0	17,6	6,0	0,0	0,0	0,0	0,0	0,0	14,4
5,3	7,0	0,0	10,4	18,9	0,0	0,0	12,3	0,0	0,0
0,0	0,0	12,5	0,0	18,8	6,4	0,0	0,0	15,6	0,0
7,5	0,0	14,0	0,0	0,0	0,0	14,9	0,0	0,0	0,0
0,0	7,4	0,0	11,4	11,7	0,0	0,0	10,2	0,0	0,0
0,0	8,9	14,7	0,0	12,6	18,5	0,0	0,0	7,1	0,0
0,0	16,6	0,0	9,6	0,0	0,0	14,5	0,0	0,0	13,6
18,5	0,0	6,3	0,0	0,0	0,0	0,0	0,0	0,0	8,2
0,0	17,6	0,0	8,3	16,9	0,0	0,0	14,3	0,0	0,0
0,0	0,0	18,3	0,0	0,0	12,3	11,1	0,0	0,0	5,8
0,0	7,1	0,0	0,0	12,5	0,0	6,3	0,0	18,0	20,0
5,9	0,0	19,1	0,0	18,1	0,0	16,0	15,9	8,4	0,0
0,0	17,5	0,0	0,0	0,0	7,0	0,0	9,6	5,5	16,0
8,4	9,6	12,3	0,0	0,0	6,3	0,0	5,2	10,9	0,0
6,0	0,0	13,0	0,0	17,5	8,5	14,0	9,0	0,0	0,0
0,0	12,5	0,0	12,6	0,0	15,1	0,0	19,2	0,0	0,0
14,0	0,0	8,2	11,6	15,2	0,0	0,0	18,1	0,0	0,0
0,0	0,0	19,1	0,0	0,0	18,1	9,1	0,0	9,8	6,7
15,8	0,0	0,0	19,7	17,1	15,0	7,0	10,3	0,0	7,6
0,0	11,8	0,0	15,8	0,0	0,0	16,8	0,0	5,5	16,6
									
4,9	4,3	3,2	2,6	3,1	4,5	2,9	5,0	4,2	4,8
